114
14017 14013 14007 13995 13993 13991 13990 13989 13988 13987 13986 13985 13982 13977 13975 13970 13967 13964 13961 13957 10152 13953 13951 13943 13941 13940 13939 13932 13929 10142 3448 3326 14058 14057 14056 14055 14054 14053 14052 14051 14049 14047 14046 14045 14044 14043 14042 14041 14040 14039 14038 14037 14036 14035 14034 14033 14032 14031 14030 14029 14028 14027 14026 14025 14024 14023 14022 14021 14020 14019 14018 14016 14015 14014 14012 14011 14010 14009 14008 14006 14005 14004 14003 14002 14001 14000 13999 13998 13997 13996 13994 13992 13981 13980 13978 13974 13973 13971 13968 13966 13965 13955 12855 13954 12854 13952 13950 13938 13937 13936 13934 11714 3278 4299 
1757.95
1716
